NAME : portgen-40-206
COMMENT : portgen N=40, seed=206
TYPE : TSP
DIMENSION : 40
EDGE_WEIGHT_TYPE : EUC_2D
NODE_COORD_SECTION
1 2756 2687
2 505 806
3 2040 1899
4 724 1581
5 186 1586
6 880 539
7 618 441
8 431 2342
9 1745 2992
10 2709 2784
11 404 1418
12 1268 2806
13 1451 150
14 1931 236
15 281 3106
16 1304 1064
17 940 390
18 1150 1021
19 1557 2129
20 930 1699
21 722 2621
22 195 1370
23 532 915
24 2052 1871
25 2085 2480
26 2381 1739
27 1747 650
28 908 1691
29 1746 114
30 2819 1018
31 341 1757
32 651 1649
33 863 1421
34 344 2411
35 3072 2679
36 289 3036
37 907 229
38 402 1827
39 2833 617
40 1897 2922
